10
10
615302
0
0
12 73 34 26 15 17 83 173 51 1
1
0
12 69 35 30 21 24 48 179 40 1
2
0
7 62 35 27 15 22 88 187 39 1
3
0
7 80 51 21 19 21 49 137 50 1
4
0
16 80 38 23 16 13 85 194 57 1
5
0
12 67 41 40 17 24 86 185 65 1
6
0
13 51 41 18 19 25 94 209 39 1
7
0
10 44 37 23 15 24 92 195 70 1
8
0
21 71 41 24 21 22 104 146 48 1
9
0
19 68 26 32 20 26 79 175 50 1
